n_boats=48;
n_periods=21;
capacity=[44,43,11,11,19,37,9,39,39,15,58,16,2,2,1,28,32,34,55,42,23,25,6,22,33,41,17,59,2,38,7,61,39,13,39,19,28,50,41,46,40,54,47,8,49,44,59,35];
crew=[26,8,6,4,7,9,2,11,7,7,20,7,1,1,1,11,8,10,20,18,7,12,2,10,14,23,3,32,1,19,1,17,11,5,23,6,5,17,10,9,17,20,28,4,18,12,29,9];
